(set-info :smt-lib-version 2.6)
(set-logic AUFBVFPDTNIRA)
(set-info :source |
Generated by: AdaCore
Generated on: 2020-03-06
Generator: SPARK
Application: Program verification for Ada
Target solver: Z3
|)
(set-info :license "https://creativecommons.org/licenses/by/4.0/")
(set-info :category "industrial")
(set-info :status unknown)
;;; generated by SMT-LIB2 driver
;;; SMT-LIB2 driver: bit-vectors, common part
;;; SMT-LIB2: integer arithmetic
(declare-sort string 0)

(declare-datatypes () ((tuple0 (Tuple0))))
(declare-sort us_private 0)

(declare-fun private__bool_eq (us_private us_private) Bool)

(declare-const us_null_ext__ us_private)

(declare-sort us_type_of_heap 0)

(declare-datatypes ()
((us_type_of_heap__ref
 (us_type_of_heap__refqtmk (us_type_of_heap__content us_type_of_heap)))))
(declare-sort us_image 0)

(declare-datatypes () ((int__ref (int__refqtmk (int__content Int)))))
(declare-datatypes () ((bool__ref (bool__refqtmk (bool__content Bool)))))
(declare-datatypes ()
((us_fixed__ref (us_fixed__refqtmk (us_fixed__content Int)))))
(declare-datatypes () ((real__ref (real__refqtmk (real__content Real)))))
(declare-datatypes ()
((us_private__ref (us_private__refqtmk (us_private__content us_private)))))
(define-fun int__ref___projection ((a int__ref)) Int (int__content a))

(define-fun us_fixed__ref___projection ((a us_fixed__ref)) Int (us_fixed__content
                                                               a))

(define-fun bool__ref___projection ((a bool__ref)) Bool (bool__content a))

(define-fun real__ref___projection ((a real__ref)) Real (real__content a))

(define-fun us_private__ref___projection ((a us_private__ref)) us_private 
  (us_private__content a))

(define-fun in_range ((x Int)) Bool (or (= x 0) (= x 1)))

(declare-fun attr__ATTRIBUTE_IMAGE (Bool) us_image)

(declare-fun attr__ATTRIBUTE_VALUE__pre_check (us_image) Bool)

(declare-fun attr__ATTRIBUTE_VALUE (us_image) Bool)

(declare-sort integer 0)

(declare-fun integerqtint (integer) Int)

;; integer'axiom
  (assert
  (forall ((i integer))
  (and (<= (- 2147483648) (integerqtint i)) (<= (integerqtint i) 2147483647))))

(define-fun in_range1 ((x Int)) Bool (and (<= (- 2147483648) x)
                                     (<= x 2147483647)))

(declare-fun attr__ATTRIBUTE_IMAGE1 (Int) us_image)

(declare-fun attr__ATTRIBUTE_VALUE__pre_check1 (us_image) Bool)

(declare-fun attr__ATTRIBUTE_VALUE1 (us_image) Int)

(declare-fun user_eq (integer integer) Bool)

(declare-const dummy integer)

(declare-datatypes ()
((integer__ref (integer__refqtmk (integer__content integer)))))
(define-fun integer__ref_integer__content__projection ((a integer__ref)) integer 
  (integer__content a))

(define-fun dynamic_invariant ((temp___expr_18 Int) (temp___is_init_14 Bool)
  (temp___skip_constant_15 Bool) (temp___do_toplevel_16 Bool)
  (temp___do_typ_inv_17 Bool)) Bool (=>
                                    (or (= temp___is_init_14 true)
                                    (<= (- 2147483648) 2147483647))
                                    (in_range1 temp___expr_18)))

(declare-sort us_main_type 0)

(declare-fun us_main_eq (us_main_type us_main_type) Bool)

(declare-sort us_rep 0)

(declare-fun bool_eq (us_rep us_rep) Bool)

(declare-const value__size Int)

(declare-const object__size Int)

(declare-const alignment Int)

;; value__size_axiom
  (assert (<= 0 value__size))

;; object__size_axiom
  (assert (<= 0 object__size))

;; alignment_axiom
  (assert (<= 0 alignment))

(declare-fun user_eq1 (us_rep us_rep) Bool)

(declare-const dummy1 us_rep)

(declare-datatypes ()
((sequence__ref (sequence__refqtmk (sequence__content us_rep)))))
(define-fun sequence__ref_sequence__content__projection ((a sequence__ref)) us_rep 
  (sequence__content a))

(declare-datatypes ()
((int_seq__ref (int_seq__refqtmk (int_seq__content us_rep)))))
(define-fun int_seq__ref_int_seq__content__projection ((a int_seq__ref)) us_rep 
  (int_seq__content a))

(declare-const arr us_rep)

(declare-const attr__ATTRIBUTE_ADDRESS Int)

(declare-const n Int)

(declare-const attr__ATTRIBUTE_ADDRESS1 Int)

(declare-fun length (us_rep) Int)

(declare-fun length__function_guard (Int us_rep) Bool)

(define-fun last ((container us_rep)) Int (+ 0 (length container)))

(declare-fun last__function_guard (Int us_rep) Bool)

(declare-sort extended_index 0)

(declare-fun extended_indexqtint (extended_index) Int)

;; extended_index'axiom
  (assert
  (forall ((i extended_index))
  (and (<= 0 (extended_indexqtint i))
  (<= (extended_indexqtint i) 2147483647))))

(define-fun in_range2 ((x Int)) Bool (and (<= 0 x) (<= x 2147483647)))

(declare-fun attr__ATTRIBUTE_IMAGE2 (Int) us_image)

(declare-fun attr__ATTRIBUTE_VALUE__pre_check2 (us_image) Bool)

(declare-fun attr__ATTRIBUTE_VALUE2 (us_image) Int)

(declare-fun user_eq2 (extended_index extended_index) Bool)

(declare-const dummy2 extended_index)

(declare-datatypes ()
((extended_index__ref
 (extended_index__refqtmk (extended_index__content extended_index)))))
(define-fun extended_index__ref_extended_index__content__projection ((a extended_index__ref)) extended_index 
  (extended_index__content a))

(define-fun dynamic_invariant1 ((temp___expr_257 Int)
  (temp___is_init_253 Bool) (temp___skip_constant_254 Bool)
  (temp___do_toplevel_255 Bool)
  (temp___do_typ_inv_256 Bool)) Bool (=>
                                     (or (= temp___is_init_253 true)
                                     (<= 0 2147483647)) (in_range2
                                     temp___expr_257)))

(define-fun iter_has_element ((container us_rep)
  (position Int)) Bool (and (ite (<= 1 position) true false) (ite (<= position 
                                                             (last container))
                                                             true false)))

(declare-fun iter_has_element__function_guard (Bool us_rep Int) Bool)

(declare-fun get (us_rep Int) Int)

(declare-fun get__function_guard (Int us_rep Int) Bool)

(define-fun default_initial_assumption ((temp___expr_242 us_rep)
  (temp___skip_top_level_243 Bool)) Bool (=>
                                         (not
                                         (= temp___skip_top_level_243 true))
                                         (= (length temp___expr_242) 0)))

(declare-sort element_type 0)

(declare-fun element_typeqtint (element_type) Int)

;; element_type'axiom
  (assert
  (forall ((i element_type))
  (and (<= (- 2147483648) (element_typeqtint i))
  (<= (element_typeqtint i) 2147483647))))

(define-fun in_range3 ((x Int)) Bool (and (<= (- 2147483648) x)
                                     (<= x 2147483647)))

(declare-fun attr__ATTRIBUTE_IMAGE3 (Int) us_image)

(declare-fun attr__ATTRIBUTE_VALUE__pre_check3 (us_image) Bool)

(declare-fun attr__ATTRIBUTE_VALUE3 (us_image) Int)

(declare-fun user_eq3 (element_type element_type) Bool)

(declare-const dummy3 element_type)

(declare-datatypes ()
((element_type__ref
 (element_type__refqtmk (element_type__content element_type)))))
(define-fun element_type__ref_element_type__content__projection ((a element_type__ref)) element_type 
  (element_type__content a))

(define-fun dynamic_invariant2 ((temp___expr_278 Int)
  (temp___is_init_274 Bool) (temp___skip_constant_275 Bool)
  (temp___do_toplevel_276 Bool)
  (temp___do_typ_inv_277 Bool)) Bool (=>
                                     (or (= temp___is_init_274 true)
                                     (<= (- 2147483648) 2147483647))
                                     (in_range3 temp___expr_278)))

;; get__post_axiom
  (assert
  (forall ((container us_rep))
  (forall ((position Int))
  (! (=>
     (and (dynamic_invariant1 position true true true true)
     (and (<= 1 position) (<= position (last container))))
     (dynamic_invariant2 (get container position) true false true true)) :pattern (
  (get container position)) ))))

(declare-const attr__ATTRIBUTE_ADDRESS2 Int)

(declare-sort index 0)

(declare-fun indexqtint (index) Int)

;; index'axiom
  (assert
  (forall ((i index)) (and (<= 1 (indexqtint i)) (<= (indexqtint i) 10))))

(define-fun in_range4 ((x Int)) Bool (and (<= 1 x) (<= x 10)))

(declare-fun attr__ATTRIBUTE_IMAGE4 (Int) us_image)

(declare-fun attr__ATTRIBUTE_VALUE__pre_check4 (us_image) Bool)

(declare-fun attr__ATTRIBUTE_VALUE4 (us_image) Int)

(declare-fun user_eq4 (index index) Bool)

(declare-const dummy4 index)

(declare-datatypes () ((index__ref (index__refqtmk (index__content index)))))
(define-fun index__ref_index__content__projection ((a index__ref)) index 
  (index__content a))

(define-fun dynamic_invariant3 ((temp___expr_223 Int)
  (temp___is_init_219 Bool) (temp___skip_constant_220 Bool)
  (temp___do_toplevel_221 Bool)
  (temp___do_typ_inv_222 Bool)) Bool (=>
                                     (or (= temp___is_init_219 true)
                                     (<= 1 10)) (in_range4 temp___expr_223)))

(define-fun default_initial_assumption1 ((temp___expr_250 us_rep)
  (temp___skip_top_level_251 Bool)) Bool (=>
                                         (not
                                         (= temp___skip_top_level_251 true))
                                         (= (length temp___expr_250) 0)))

(declare-sort count_type 0)

(declare-fun count_typeqtint (count_type) Int)

;; count_type'axiom
  (assert
  (forall ((i count_type))
  (and (<= 0 (count_typeqtint i)) (<= (count_typeqtint i) 2147483647))))

(define-fun in_range5 ((x Int)) Bool (and (<= 0 x) (<= x 2147483647)))

(declare-fun attr__ATTRIBUTE_IMAGE5 (Int) us_image)

(declare-fun attr__ATTRIBUTE_VALUE__pre_check5 (us_image) Bool)

(declare-fun attr__ATTRIBUTE_VALUE5 (us_image) Int)

(declare-fun user_eq5 (count_type count_type) Bool)

(declare-const dummy5 count_type)

(declare-datatypes ()
((count_type__ref (count_type__refqtmk (count_type__content count_type)))))
(define-fun count_type__ref_count_type__content__projection ((a count_type__ref)) count_type 
  (count_type__content a))

(define-fun dynamic_invariant4 ((temp___expr_271 Int)
  (temp___is_init_267 Bool) (temp___skip_constant_268 Bool)
  (temp___do_toplevel_269 Bool)
  (temp___do_typ_inv_270 Bool)) Bool (=>
                                     (or (= temp___is_init_267 true)
                                     (<= 0 2147483647)) (in_range5
                                     temp___expr_271)))

;; length__post_axiom
  (assert
  (forall ((container us_rep))
  (! (let ((result (length container)))
     (and (<= (+ 0 result) 2147483647) (dynamic_invariant4 result true false
     true true))) :pattern ((length container)) )))

;; Assume
  (assert true)

;; Assume
  (assert (dynamic_invariant n true false true true))

;; Assume
  (assert (= (last arr) 10))

(declare-const i Int)

;; H
  (assert (= i 1))

;; Assume
  (assert (dynamic_invariant3 i true false true true))

;; H
  (assert (< i 10))

(declare-const i1 Int)

;; LoopInvariant
  (assert
  (forall ((j Int))
  (=> (and (<= 1 j) (<= j (- i1 1))) (not (= (get arr j) n)))))

;; H
  (assert
  (= (and (ite (dynamic_invariant3 i1 true true true true) true false) 
  (ite (< i1 10) true false)) true))

(define-fun o () us_rep arr)

(assert
;; defqtvc
 ;; File "linear_search.adb", line 33, characters 0-0
  (not (<= 1 i1)))
(check-sat)
